; benchmark generated from python API
(set-info :status unknown)
(declare-fun strlen_72_64 () (_ BitVec 64))
(declare-fun args_0_8 () (_ BitVec 8))
(declare-fun strlen_74_64 () (_ BitVec 64))
(declare-fun args_1_8 () (_ BitVec 8))
(declare-fun strlen_77_64 () (_ BitVec 64))
(declare-fun args_2_8 () (_ BitVec 8))
(declare-fun args_3_8 () (_ BitVec 8))
(declare-fun strlen_80_64 () (_ BitVec 64))
(declare-fun strlen_84_64 () (_ BitVec 64))
(declare-fun args_4_8 () (_ BitVec 8))
(declare-fun strlen_88_64 () (_ BitVec 64))
(declare-fun args_5_16 () (_ BitVec 16))
(declare-fun strlen_93_64 () (_ BitVec 64))
(declare-fun args_6_16 () (_ BitVec 16))
(declare-fun sigaction_oldact_239_1216 () (_ BitVec 1216))
(declare-fun sigaction_oldact_306_1216 () (_ BitVec 1216))
(declare-fun sigaction_oldact_432_1216 () (_ BitVec 1216))
(declare-fun sigaction_oldact_696_1216 () (_ BitVec 1216))
(declare-fun sigaction_oldact_1189_1216 () (_ BitVec 1216))
(assert
 (= (_ bv1 64) strlen_72_64))
(assert
 (let (($x69 (= (_ bv0 8) args_0_8)))
 (not $x69)))
(assert
 (= (_ bv1 64) strlen_74_64))
(assert
 (let (($x347 (= (_ bv0 8) args_1_8)))
 (not $x347)))
(assert
 (= (_ bv1 64) strlen_77_64))
(assert
 (let (($x369 (= (_ bv0 8) args_2_8)))
 (not $x369)))
(assert
 (let (($x415 (= (_ bv0 8) args_3_8)))
 (not $x415)))
(assert
 (= (_ bv1 64) strlen_80_64))
(assert
 (= (_ bv1 64) strlen_84_64))
(assert
 (let (($x222 (= (_ bv0 8) args_4_8)))
 (not $x222)))
(assert
 (let (($x428 (= (_ bv2 64) strlen_88_64)))
 (not $x428)))
(assert
 (let ((?x614 (bvadd (_ bv576460752303357834 64) strlen_88_64)))
 (let ((?x533 ((_ extract 7 0) args_5_16)))
 (let (($x532 (= (_ bv0 8) ?x533)))
 (let ((?x602 (ite $x532 (_ bv576460752303357835 64) (_ bv576460752303357836 64))))
 (let ((?x333 ((_ extract 15 8) args_5_16)))
 (let (($x537 (= (_ bv0 8) ?x333)))
 (let ((?x603 (ite $x537 (_ bv576460752303357834 64) ?x602)))
 (= ?x603 ?x614)))))))))
(assert
 (let ((?x698 ((_ extract 7 0) args_6_16)))
 (let (($x717 (= (_ bv0 8) ?x698)))
 (let ((?x697 (ite $x717 (_ bv576460752303357838 64) (_ bv576460752303357839 64))))
 (let ((?x425 ((_ extract 15 8) args_6_16)))
 (let (($x701 (= (_ bv0 8) ?x425)))
 (let ((?x700 (ite $x701 (_ bv576460752303357837 64) ?x697)))
 (let ((?x703 (bvsub ?x700 (_ bv576460752303357837 64))))
 (= ?x703 strlen_93_64)))))))))
(assert
 (let ((?x6104 ((_ extract 127 120) sigaction_oldact_239_1216)))
 (let ((?x6148 (bvand ?x6104 (_ bv4 8))))
 (and (distinct (_ bv0 8) ?x6148) true))))
(assert
 (let ((?x10799 ((_ extract 127 120) sigaction_oldact_306_1216)))
 (let ((?x10824 (bvand ?x10799 (_ bv4 8))))
 (= (_ bv0 8) ?x10824))))
(assert
 (let ((?x20269 ((_ extract 127 120) sigaction_oldact_432_1216)))
 (let ((?x20358 (bvand ?x20269 (_ bv4 8))))
 (and (distinct (_ bv0 8) ?x20358) true))))
(assert
 (let ((?x38841 ((_ extract 127 120) sigaction_oldact_696_1216)))
 (let ((?x38858 (bvand ?x38841 (_ bv4 8))))
 (= (_ bv0 8) ?x38858))))
(assert
 (let ((?x68423 ((_ extract 127 120) sigaction_oldact_1189_1216)))
 (let ((?x27545 (bvand ?x68423 (_ bv4 8))))
 (and (distinct (_ bv0 8) ?x27545) true))))
(maximize args_3_8)
(minimize sigaction_oldact_432_1216)
(maximize strlen_80_64)
(maximize args_1_8)
(minimize strlen_77_64)
(maximize sigaction_oldact_239_1216)
(maximize sigaction_oldact_306_1216)
(minimize args_0_8)
(maximize strlen_77_64)
(maximize strlen_72_64)
(minimize sigaction_oldact_696_1216)
(minimize args_3_8)
(minimize strlen_72_64)
(check-sat)
(get-objectives)
